7,2,6,1,14,2,13,3,18,1,4,1,1,4,20,3,17,2,8,5,2,3,11,3,16,4,12,3,9,4,5,4,10,3,15,5,3,5,19,3;13,1,19,1,2,1,7,3,8,3,20,2,17,1,6,5,1,5,9,1,15,2,16,2,12,2,11,4,4,4,3,3,14,5,18,4,5,5,10,5;7,1,8,2,3,1,5,1,14,4,6,4,1,3,13,5,15,1,20,4,9,2,11,2,2,4,18,3,10,2,16,5,4,5,12,4,17,5,19,5;8,1,1,1,20,1,13,2,14,3,6,3,10,1,4,2,12,1,3,2,5,3,15,4,7,5,16,3,17,4,11,5,2,5,9,5,18,5,19,4;14,1,16,1,1,2,6,2,2,2,13,4,11,1,5,2,8,4,7,4,18,2,15,3,17,3,4,3,9,3,20,5,3,4,10,4,19,2,12,5;
